(set-info :origin "benchmarks generated from SLAYer trace refinement by Jael Kriener")
(set-logic HORN)
(declare-fun transition-0 (Real Real Real Real Bool) Bool)
(declare-fun transition-2
             (Real Real Real Real Real Real Bool Bool Real Real)
             Bool)
(declare-fun transition-1 (Real Real Real Real Real Bool Real) Bool)
(declare-fun transition-3
             (Real Real Real Real Real Real Real Bool Bool Bool Real Real Real)
             Bool)
(assert (forall ((?A Real) (?B Real) (?C Real) )(=> (|transition-0| 2.0 ?C ?B ?A false) (|transition-0| 1.0 ?C ?B ?A false)))
)
(assert (forall ((?A Real) (?B Real) (?C Real) (?D Real) (?E Real) )(=> (|transition-1| 2.0 ?E ?D ?C ?B false ?A) (|transition-1| 1.0 ?E ?D ?C ?B false ?A)))
)
(assert (forall ((?A Real) (?B Real) (?C Real) (?D Real) (?E Real) (?F Bool) (?G Real) (?H Real) )(=> (|transition-2| 2.0 ?H ?G ?E ?D ?C false ?F ?B ?A) (|transition-2| 1.0 ?H ?G ?E ?D ?C false ?F ?B ?A)))
)
(assert (forall ((?A Real) (?B Real) (?C Real) (?D Real) (?E Real) (?F Bool) (?G Real) (?H Real) (?I Bool) (?J Real) (?K Real) )(let (($x18296 (|transition-3| 1.0 ?K ?J ?H ?G ?E ?D false ?I ?F ?C ?B ?A)))
(let (($x6039 (|transition-3| 2.0 ?K ?J ?H ?G ?E ?D false ?I ?F ?C ?B ?A)))
(=> $x6039 $x18296))))
)
(assert (forall ((?A Real) (?B Real) )(|transition-0| 2.0 ?B 1.0 ?A false))
)
(assert (forall ((?A Real) (?B Real) (?C Real) (?D Real) )(=> (= ?A (- 1.0)) (|transition-1| 2.0 ?D 1.0 ?C ?B false ?A)))
)
(assert (forall ((?A Real) (?B Real) (?C Real) (?D Real) (?E Real) (?F Real) )(let (($x7008 (|transition-2| 2.0 ?F 1.0 ?E ?D ?C false false ?B ?A)))
(=> (and (= ?A (- 1.0)) (= ?B (- 1.0))) $x7008)))
)
(assert (forall ((?A Real) (?B Real) (?C Real) (?D Real) (?E Real) (?F Real) (?G Real) (?H Real) )(let (($x14969 (|transition-3| 2.0 ?H 1.0 ?G ?F ?E ?D false false false ?C ?B ?A)))
(=> (and (= ?A (- 1.0)) (= ?B (- 1.0)) (= ?C (- 1.0))) $x14969)))
)
(assert (forall ((?A Real) (?B Real) (?C Real) (?D Real) )(=> (|transition-0| 1.0 ?D ?B ?A false) (|transition-0| 0.0 ?C ?B ?A false)))
)
(assert (forall ((?A Real) (?B Real) (?C Real) (?D Real) (?E Real) (?F Real) )(=> (|transition-1| 1.0 ?F ?D ?C ?B false ?A) (|transition-1| 0.0 ?E ?D ?C ?B false ?A)))
)
(assert (forall ((?A Real) (?B Real) (?C Real) (?D Real) (?E Real) (?F Bool) (?G Real) (?H Real) (?I Real) )(let (($x6532 (or (not (= ?E 1.0)) (not ?F))))
(let (($x21593 (and (|transition-2| 1.0 ?I ?G ?E ?D ?C false ?F ?B ?A) $x6532)))
(=> $x21593 (|transition-2| 0.0 ?H ?G ?E ?D ?C false ?F ?B ?A)))))
)
(assert (forall ((?A Real) (?B Real) (?C Real) (?D Real) (?E Real) (?F Bool) (?G Real) (?H Real) (?I Bool) (?J Real) (?K Real) (?L Real) )(let (($x1791 (|transition-3| 0.0 ?K ?J ?H ?G ?E ?D false ?I ?F ?C ?B ?A)))
(let (($x6532 (or (not (= ?H 1.0)) (not ?I))))
(let (($x17423 (|transition-3| 1.0 ?L ?J ?H ?G ?E ?D false ?I ?F ?C ?B ?A)))
(=> (and $x17423 $x6532 (or (not (= ?H 2.0)) (not ?F))) $x1791)))))
)
(assert (forall ((?A Real) (?B Real) (?C Real) (?D Real) (?E Real) )(let (($x25282 (|transition-0| 0.0 ?E ?D ?C false)))
(=> $x25282 (|transition-1| 0.0 ?E ?D ?C ?B false ?A))))
)
(assert (forall ((?A Real) (?B Real) (?C Real) (?D Real) (?E Real) (?F Bool) (?G Real) (?H Real) (?I Real) (?J Real) )(let (($x25282 (|transition-0| 0.0 ?J ?I ?H false)))
(=> (and $x25282 (= ?G ?D) (= ?E ?B)) (|transition-2| 0.0 ?J ?I ?H ?D ?C false ?F ?B ?A))))
)
(assert (forall ((?A Real) (?B Real) (?C Real) (?D Real) (?E Real) (?F Bool) (?G Real) (?H Real) (?I Bool) (?J Real) (?K Real) (?L Real) (?M Bool) (?N Real) (?O Real) (?P Real) )(let (($x363 (|transition-3| 0.0 ?P ?O ?N ?G ?E ?D false ?I ?F ?C ?B ?A)))
(let (($x25282 (|transition-0| 0.0 ?P ?O ?N false)))
(let (($x16581 (and $x25282 (= ?L ?G) (= ?K ?E) (= ?M ?I) (= ?J ?C) (= ?H ?B))))
(=> $x16581 $x363)))))
)
(assert (not (exists ((nondet1 Real) (front Real) (prog_var_0-x Real))
       (transition-0 0.0 nondet1 front prog_var_0-x false))))
(check-sat)
